0 13 
1 62 87 
2 4 10 12 14 26 34 36 37 40 46 54 56 58 67 68 72 74 75 81 107 113 116 121 
3 65 66 76 79 83 95 100 
4 49 104 
5 9 21 27 30 35 52 63 69 77 80 88 91 92 94 99 103 108 115 119 123 
6 50 
7 2 3 16 55 109 118 124 
8 
9 19 25 31 39 73 78 85 86 93 122 
10 15 24 41 45 71 102 
11 
12 0 1 5 17 18 22 23 29 33 38 42 43 53 59 70 82 84 89 90 96 110 111 114 120 
13 6 8 11 20 28 32 44 47 57 101 
14 61 97 98 112 
15 105 106 
16 51 
17 117 
18 48 60 
19 7 64 
